3Tercero/Algoritmica/Practica1/huelva.tour
NAME: huelva.tour
TYPE: TOUR
DIMENSION: 14
SOLUTION: 392
TOUR_SECTION
37 - 1, 9, 3, 12, 14, 8, 11, 10, 7, 
16 - 1, 9, 
41 - 1, 9, 3, 12, 14, 8, 11, 10, 7, 2, 13, 
45 - 1, 9, 3, 12, 14, 8, 11, 10, 7, 2, 13, 4, 
65 - 1, 9, 3, 12, 14, 8, 11, 10, 7, 2, 13, 4, 5, 
28 - 1, 9, 3, 12, 14, 8, 11, 10, 
23 - 1, 9, 3, 12, 14, 
2 - 1, 
27 - 1, 9, 3, 12, 14, 8, 11, 
24 - 1, 9, 3, 12, 14, 8, 
22 - 1, 9, 3, 
40 - 1, 9, 3, 12, 14, 8, 11, 10, 7, 2, 
22 - 1, 9, 3, 12, 
-1
EOF
