3Tercero/Algoritmica/Practica1/huelva.tour.tsp
NAME: huelva.tour.tsp
TYPE: TOUR
DIMENSION: 5
SOLUTION: 95
TOUR_SECTION
35 - 1, 2, 3, 5, 5, 2, 3, 4, 4, 2, 3, 3, 2, 
30 - 1, 2, 3, 5, 5, 2, 3, 4, 4, 2, 3, 
20 - 1, 2, 3, 5, 5, 2, 3, 4, 
10 - 1, 2, 3, 5, 
-1
EOF
